p cnf 256 1
256 0
w 1 0.0403646
w 2 1 0
w 2 -1 1
w 3 2 1
w 3 -2 0
w 4 3 0
w 4 -3 1
w 5 4 1
w 5 -4 0
w 6 5 1
w 6 -5 0
w 7 6 0.175741
w 7 -6 0.65085
w 8 7 1
w 8 -7 0
w 9 8 1
w 9 -8 0
w 10 9 0.516794
w 10 -9 0.410925
w 11 10 0
w 11 -10 1
w 12 11 0
w 12 -11 1
w 13 12 0
w 13 -12 1
w 14 13 1
w 14 -13 0
w 15 14 1
w 15 -14 0
w 16 15 0.862215
w 16 -15 0.563482
w 17 1 1
w 17 -1 0
w 18 17 2 1
w 18 17 -2 0
w 18 -17 2 1
w 18 -17 -2 0
w 19 18 3 0
w 19 18 -3 0
w 19 -18 3 0
w 19 -18 -3 1
w 20 19 4 1
w 20 19 -4 0
w 20 -19 4 0
w 20 -19 -4 0
w 21 20 5 0.907691
w 21 20 -5 0.741508
w 21 -20 5 0.527681
w 21 -20 -5 0.567305
w 22 21 6 0
w 22 21 -6 1
w 22 -21 6 0
w 22 -21 -6 1
w 23 22 7 0.879999
w 23 22 -7 0.160672
w 23 -22 7 0.443305
w 23 -22 -7 0.26021
w 24 23 8 0.0803898
w 24 23 -8 0.809272
w 24 -23 8 0.629058
w 24 -23 -8 0.811446
w 25 24 9 1
w 25 24 -9 1
w 25 -24 9 0
w 25 -24 -9 1
w 26 25 10 0.401963
w 26 25 -10 0.883363
w 26 -25 10 0.446177
w 26 -25 -10 0.911321
w 27 26 11 1
w 27 26 -11 0
w 27 -26 11 1
w 27 -26 -11 1
w 28 27 12 0
w 28 27 -12 1
w 28 -27 12 1
w 28 -27 -12 0
w 29 28 13 0.887705
w 29 28 -13 0.745519
w 29 -28 13 0.977796
w 29 -28 -13 0.33101
w 30 29 14 0
w 30 29 -14 1
w 30 -29 14 0
w 30 -29 -14 0
w 31 30 15 1
w 31 30 -15 0
w 31 -30 15 1
w 31 -30 -15 0
w 32 31 16 1
w 32 31 -16 0
w 32 -31 16 1
w 32 -31 -16 0
w 33 17 1
w 33 -17 0
w 34 33 18 0
w 34 33 -18 0
w 34 -33 18 1
w 34 -33 -18 0
w 35 34 19 0.680659
w 35 34 -19 0.330922
w 35 -34 19 0.575157
w 35 -34 -19 0.568364
w 36 35 20 1
w 36 35 -20 0
w 36 -35 20 0
w 36 -35 -20 0
w 37 36 21 0
w 37 36 -21 0
w 37 -36 21 1
w 37 -36 -21 1
w 38 37 22 1
w 38 37 -22 0
w 38 -37 22 1
w 38 -37 -22 0
w 39 38 23 1
w 39 38 -23 1
w 39 -38 23 1
w 39 -38 -23 0
w 40 39 24 0.83393
w 40 39 -24 0.899052
w 40 -39 24 0.0281743
w 40 -39 -24 0.506707
w 41 40 25 1
w 41 40 -25 1
w 41 -40 25 0
w 41 -40 -25 1
w 42 41 26 0.771818
w 42 41 -26 0.914318
w 42 -41 26 0.655104
w 42 -41 -26 0.853989
w 43 42 27 1
w 43 42 -27 0
w 43 -42 27 1
w 43 -42 -27 0
w 44 43 28 0
w 44 43 -28 0
w 44 -43 28 1
w 44 -43 -28 1
w 45 44 29 0
w 45 44 -29 0
w 45 -44 29 1
w 45 -44 -29 0
w 46 45 30 0
w 46 45 -30 0
w 46 -45 30 1
w 46 -45 -30 1
w 47 46 31 0
w 47 46 -31 1
w 47 -46 31 0
w 47 -46 -31 0
w 48 47 32 0
w 48 47 -32 0
w 48 -47 32 1
w 48 -47 -32 1
w 49 33 0.177008
w 49 -33 0.89482
w 50 49 34 0.676503
w 50 49 -34 0.0157191
w 50 -49 34 0.42856
w 50 -49 -34 0.272525
w 51 50 35 1
w 51 50 -35 0
w 51 -50 35 0
w 51 -50 -35 0
w 52 51 36 0
w 52 51 -36 1
w 52 -51 36 0
w 52 -51 -36 0
w 53 52 37 1
w 53 52 -37 1
w 53 -52 37 0
w 53 -52 -37 1
w 54 53 38 1
w 54 53 -38 0
w 54 -53 38 0
w 54 -53 -38 1
w 55 54 39 1
w 55 54 -39 0
w 55 -54 39 0
w 55 -54 -39 1
w 56 55 40 0.0438106
w 56 55 -40 0.79776
w 56 -55 40 0.89897
w 56 -55 -40 0.47237
w 57 56 41 0
w 57 56 -41 1
w 57 -56 41 0
w 57 -56 -41 0
w 58 57 42 0
w 58 57 -42 0
w 58 -57 42 1
w 58 -57 -42 0
w 59 58 43 1
w 59 58 -43 1
w 59 -58 43 1
w 59 -58 -43 0
w 60 59 44 0.221451
w 60 59 -44 0.97697
w 60 -59 44 0.653328
w 60 -59 -44 0.066223
w 61 60 45 1
w 61 60 -45 1
w 61 -60 45 0
w 61 -60 -45 0
w 62 61 46 0.428016
w 62 61 -46 0.516595
w 62 -61 46 0.836875
w 62 -61 -46 0.900387
w 63 62 47 0
w 63 62 -47 1
w 63 -62 47 0
w 63 -62 -47 0
w 64 63 48 0
w 64 63 -48 1
w 64 -63 48 1
w 64 -63 -48 0
w 65 49 1
w 65 -49 0
w 66 65 50 0
w 66 65 -50 1
w 66 -65 50 1
w 66 -65 -50 0
w 67 66 51 0.626639
w 67 66 -51 0.0151709
w 67 -66 51 0.175114
w 67 -66 -51 0.224217
w 68 67 52 1
w 68 67 -52 0
w 68 -67 52 0
w 68 -67 -52 0
w 69 68 53 0
w 69 68 -53 1
w 69 -68 53 0
w 69 -68 -53 0
w 70 69 54 0
w 70 69 -54 0
w 70 -69 54 0
w 70 -69 -54 1
w 71 70 55 1
w 71 70 -55 1
w 71 -70 55 0
w 71 -70 -55 1
w 72 71 56 0
w 72 71 -56 1
w 72 -71 56 1
w 72 -71 -56 1
w 73 72 57 1
w 73 72 -57 1
w 73 -72 57 0
w 73 -72 -57 0
w 74 73 58 1
w 74 73 -58 0
w 74 -73 58 1
w 74 -73 -58 0
w 75 74 59 1
w 75 74 -59 1
w 75 -74 59 0
w 75 -74 -59 0
w 76 75 60 0.297925
w 76 75 -60 0.19572
w 76 -75 60 0.189181
w 76 -75 -60 0.0927026
w 77 76 61 1
w 77 76 -61 1
w 77 -76 61 1
w 77 -76 -61 0
w 78 77 62 0.446236
w 78 77 -62 0.131975
w 78 -77 62 0.0225831
w 78 -77 -62 0.308447
w 79 78 63 1
w 79 78 -63 1
w 79 -78 63 1
w 79 -78 -63 0
w 80 79 64 1
w 80 79 -64 0
w 80 -79 64 0
w 80 -79 -64 1
w 81 65 0
w 81 -65 1
w 82 81 66 1
w 82 81 -66 0
w 82 -81 66 1
w 82 -81 -66 0
w 83 82 67 1
w 83 82 -67 0
w 83 -82 67 1
w 83 -82 -67 0
w 84 83 68 1
w 84 83 -68 0
w 84 -83 68 1
w 84 -83 -68 0
w 85 84 69 0
w 85 84 -69 0
w 85 -84 69 1
w 85 -84 -69 1
w 86 85 70 0
w 86 85 -70 1
w 86 -85 70 0
w 86 -85 -70 1
w 87 86 71 0.755472
w 87 86 -71 0.560277
w 87 -86 71 0.790068
w 87 -86 -71 0.0377172
w 88 87 72 0.384389
w 88 87 -72 0.482252
w 88 -87 72 0.0508285
w 88 -87 -72 0.902275
w 89 88 73 0
w 89 88 -73 0
w 89 -88 73 1
w 89 -88 -73 0
w 90 89 74 1
w 90 89 -74 0
w 90 -89 74 0
w 90 -89 -74 1
w 91 90 75 0.125385
w 91 90 -75 0.048777
w 91 -90 75 0.753175
w 91 -90 -75 0.536055
w 92 91 76 0
w 92 91 -76 1
w 92 -91 76 0
w 92 -91 -76 0
w 93 92 77 1
w 93 92 -77 0
w 93 -92 77 0
w 93 -92 -77 0
w 94 93 78 0.322675
w 94 93 -78 0.991836
w 94 -93 78 0.813878
w 94 -93 -78 0.224949
w 95 94 79 1
w 95 94 -79 0
w 95 -94 79 0
w 95 -94 -79 0
w 96 95 80 0.17496
w 96 95 -80 0.480383
w 96 -95 80 0.584072
w 96 -95 -80 0.942407
w 97 81 1
w 97 -81 0
w 98 97 82 0.047946
w 98 97 -82 0.245512
w 98 -97 82 0.118588
w 98 -97 -82 0.757573
w 99 98 83 0
w 99 98 -83 1
w 99 -98 83 1
w 99 -98 -83 1
w 100 99 84 1
w 100 99 -84 0
w 100 -99 84 1
w 100 -99 -84 1
w 101 100 85 1
w 101 100 -85 1
w 101 -100 85 1
w 101 -100 -85 0
w 102 101 86 0
w 102 101 -86 0
w 102 -101 86 0
w 102 -101 -86 1
w 103 102 87 1
w 103 102 -87 0
w 103 -102 87 1
w 103 -102 -87 1
w 104 103 88 0.851371
w 104 103 -88 0.620873
w 104 -103 88 0.0227952
w 104 -103 -88 0.608944
w 105 104 89 1
w 105 104 -89 1
w 105 -104 89 0
w 105 -104 -89 0
w 106 105 90 0
w 106 105 -90 1
w 106 -105 90 1
w 106 -105 -90 1
w 107 106 91 0.0880401
w 107 106 -91 0.510426
w 107 -106 91 0.814154
w 107 -106 -91 0.503299
w 108 107 92 0
w 108 107 -92 0
w 108 -107 92 1
w 108 -107 -92 1
w 109 108 93 0
w 109 108 -93 0
w 109 -108 93 1
w 109 -108 -93 1
w 110 109 94 1
w 110 109 -94 0
w 110 -109 94 0
w 110 -109 -94 0
w 111 110 95 1
w 111 110 -95 1
w 111 -110 95 0
w 111 -110 -95 1
w 112 111 96 1
w 112 111 -96 1
w 112 -111 96 0
w 112 -111 -96 0
w 113 97 0
w 113 -97 1
w 114 113 98 1
w 114 113 -98 0
w 114 -113 98 1
w 114 -113 -98 1
w 115 114 99 0.133741
w 115 114 -99 0.0291763
w 115 -114 99 0.113822
w 115 -114 -99 0.171816
w 116 115 100 0.296416
w 116 115 -100 0.0133157
w 116 -115 100 0.130795
w 116 -115 -100 0.383217
w 117 116 101 0
w 117 116 -101 1
w 117 -116 101 1
w 117 -116 -101 1
w 118 117 102 1
w 118 117 -102 1
w 118 -117 102 1
w 118 -117 -102 0
w 119 118 103 1
w 119 118 -103 1
w 119 -118 103 0
w 119 -118 -103 1
w 120 119 104 0
w 120 119 -104 1
w 120 -119 104 1
w 120 -119 -104 1
w 121 120 105 0
w 121 120 -105 1
w 121 -120 105 0
w 121 -120 -105 0
w 122 121 106 0.6668
w 122 121 -106 0.208439
w 122 -121 106 0.227985
w 122 -121 -106 0.372986
w 123 122 107 0
w 123 122 -107 1
w 123 -122 107 1
w 123 -122 -107 0
w 124 123 108 0
w 124 123 -108 1
w 124 -123 108 1
w 124 -123 -108 1
w 125 124 109 0
w 125 124 -109 0
w 125 -124 109 1
w 125 -124 -109 0
w 126 125 110 1
w 126 125 -110 1
w 126 -125 110 1
w 126 -125 -110 0
w 127 126 111 1
w 127 126 -111 1
w 127 -126 111 0
w 127 -126 -111 0
w 128 127 112 0.581848
w 128 127 -112 0.0378837
w 128 -127 112 0.00422307
w 128 -127 -112 0.954834
w 129 113 0
w 129 -113 1
w 130 129 114 1
w 130 129 -114 0
w 130 -129 114 1
w 130 -129 -114 1
w 131 130 115 0
w 131 130 -115 0
w 131 -130 115 1
w 131 -130 -115 0
w 132 131 116 0
w 132 131 -116 0
w 132 -131 116 1
w 132 -131 -116 1
w 133 132 117 0
w 133 132 -117 0
w 133 -132 117 1
w 133 -132 -117 1
w 134 133 118 0.552773
w 134 133 -118 0.801715
w 134 -133 118 0.618515
w 134 -133 -118 0.134621
w 135 134 119 0.622738
w 135 134 -119 0.0894545
w 135 -134 119 0.0760797
w 135 -134 -119 0.347759
w 136 135 120 1
w 136 135 -120 0
w 136 -135 120 0
w 136 -135 -120 1
w 137 136 121 0.929886
w 137 136 -121 0.407804
w 137 -136 121 0.0905632
w 137 -136 -121 0.150687
w 138 137 122 0
w 138 137 -122 1
w 138 -137 122 0
w 138 -137 -122 0
w 139 138 123 0
w 139 138 -123 0
w 139 -138 123 1
w 139 -138 -123 0
w 140 139 124 1
w 140 139 -124 1
w 140 -139 124 1
w 140 -139 -124 0
w 141 140 125 0.251824
w 141 140 -125 0.959106
w 141 -140 125 0.898408
w 141 -140 -125 0.599584
w 142 141 126 0
w 142 141 -126 0
w 142 -141 126 1
w 142 -141 -126 1
w 143 142 127 0.336676
w 143 142 -127 0.741936
w 143 -142 127 0.876861
w 143 -142 -127 0.487363
w 144 143 128 1
w 144 143 -128 0
w 144 -143 128 1
w 144 -143 -128 1
w 145 129 0
w 145 -129 1
w 146 145 130 0
w 146 145 -130 1
w 146 -145 130 0
w 146 -145 -130 0
w 147 146 131 1
w 147 146 -131 0
w 147 -146 131 0
w 147 -146 -131 0
w 148 147 132 0.292628
w 148 147 -132 0.134002
w 148 -147 132 0.157369
w 148 -147 -132 0.694892
w 149 148 133 0.564159
w 149 148 -133 0.0290232
w 149 -148 133 0.773649
w 149 -148 -133 0.900836
w 150 149 134 0.65051
w 150 149 -134 0.388198
w 150 -149 134 0.0849979
w 150 -149 -134 0.861639
w 151 150 135 1
w 151 150 -135 0
w 151 -150 135 0
w 151 -150 -135 0
w 152 151 136 0
w 152 151 -136 1
w 152 -151 136 0
w 152 -151 -136 0
w 153 152 137 0
w 153 152 -137 1
w 153 -152 137 0
w 153 -152 -137 1
w 154 153 138 1
w 154 153 -138 1
w 154 -153 138 0
w 154 -153 -138 1
w 155 154 139 1
w 155 154 -139 1
w 155 -154 139 0
w 155 -154 -139 1
w 156 155 140 0
w 156 155 -140 0
w 156 -155 140 1
w 156 -155 -140 0
w 157 156 141 1
w 157 156 -141 1
w 157 -156 141 0
w 157 -156 -141 1
w 158 157 142 0.189188
w 158 157 -142 0.129942
w 158 -157 142 0.610051
w 158 -157 -142 0.81943
w 159 158 143 0.171716
w 159 158 -143 0.843891
w 159 -158 143 0.982429
w 159 -158 -143 0.50637
w 160 159 144 0
w 160 159 -144 1
w 160 -159 144 0
w 160 -159 -144 1
w 161 145 1
w 161 -145 0
w 162 161 146 1
w 162 161 -146 0
w 162 -161 146 0
w 162 -161 -146 0
w 163 162 147 1
w 163 162 -147 0
w 163 -162 147 1
w 163 -162 -147 0
w 164 163 148 1
w 164 163 -148 0
w 164 -163 148 1
w 164 -163 -148 0
w 165 164 149 0
w 165 164 -149 0
w 165 -164 149 0
w 165 -164 -149 1
w 166 165 150 0.596383
w 166 165 -150 0.858687
w 166 -165 150 0.302681
w 166 -165 -150 0.594775
w 167 166 151 1
w 167 166 -151 0
w 167 -166 151 0
w 167 -166 -151 1
w 168 167 152 0
w 168 167 -152 1
w 168 -167 152 1
w 168 -167 -152 0
w 169 168 153 1
w 169 168 -153 1
w 169 -168 153 0
w 169 -168 -153 1
w 170 169 154 1
w 170 169 -154 1
w 170 -169 154 0
w 170 -169 -154 1
w 171 170 155 0
w 171 170 -155 1
w 171 -170 155 0
w 171 -170 -155 0
w 172 171 156 0.940604
w 172 171 -156 0.149497
w 172 -171 156 0.281769
w 172 -171 -156 0.53538
w 173 172 157 0
w 173 172 -157 0
w 173 -172 157 1
w 173 -172 -157 1
w 174 173 158 0.698299
w 174 173 -158 0.94228
w 174 -173 158 0.863427
w 174 -173 -158 0.89273
w 175 174 159 1
w 175 174 -159 1
w 175 -174 159 0
w 175 -174 -159 1
w 176 175 160 0
w 176 175 -160 0
w 176 -175 160 1
w 176 -175 -160 1
w 177 161 1
w 177 -161 0
w 178 177 162 0.568389
w 178 177 -162 0.436425
w 178 -177 162 0.275424
w 178 -177 -162 0.547477
w 179 178 163 1
w 179 178 -163 0
w 179 -178 163 0
w 179 -178 -163 0
w 180 179 164 0
w 180 179 -164 1
w 180 -179 164 1
w 180 -179 -164 1
w 181 180 165 0
w 181 180 -165 1
w 181 -180 165 0
w 181 -180 -165 1
w 182 181 166 0.0982697
w 182 181 -166 0.865262
w 182 -181 166 0.846443
w 182 -181 -166 0.600353
w 183 182 167 0
w 183 182 -167 1
w 183 -182 167 1
w 183 -182 -167 0
w 184 183 168 0
w 184 183 -168 1
w 184 -183 168 0
w 184 -183 -168 0
w 185 184 169 1
w 185 184 -169 1
w 185 -184 169 1
w 185 -184 -169 0
w 186 185 170 0
w 186 185 -170 1
w 186 -185 170 0
w 186 -185 -170 0
w 187 186 171 1
w 187 186 -171 0
w 187 -186 171 1
w 187 -186 -171 0
w 188 187 172 0
w 188 187 -172 0
w 188 -187 172 1
w 188 -187 -172 0
w 189 188 173 0
w 189 188 -173 1
w 189 -188 173 1
w 189 -188 -173 0
w 190 189 174 0.0342838
w 190 189 -174 0.222311
w 190 -189 174 0.00889398
w 190 -189 -174 0.184865
w 191 190 175 1
w 191 190 -175 0
w 191 -190 175 1
w 191 -190 -175 0
w 192 191 176 0
w 192 191 -176 0
w 192 -191 176 1
w 192 -191 -176 0
w 193 177 0.825731
w 193 -177 0.575252
w 194 193 178 1
w 194 193 -178 0
w 194 -193 178 0
w 194 -193 -178 0
w 195 194 179 1
w 195 194 -179 0
w 195 -194 179 1
w 195 -194 -179 1
w 196 195 180 0.444149
w 196 195 -180 0.540128
w 196 -195 180 0.823392
w 196 -195 -180 0.478432
w 197 196 181 0.832286
w 197 196 -181 0.663298
w 197 -196 181 0.328755
w 197 -196 -181 0.435132
w 198 197 182 0.151484
w 198 197 -182 0.237997
w 198 -197 182 0.0108963
w 198 -197 -182 0.327766
w 199 198 183 1
w 199 198 -183 1
w 199 -198 183 0
w 199 -198 -183 1
w 200 199 184 0
w 200 199 -184 1
w 200 -199 184 1
w 200 -199 -184 0
w 201 200 185 1
w 201 200 -185 1
w 201 -200 185 0
w 201 -200 -185 1
w 202 201 186 0
w 202 201 -186 0
w 202 -201 186 1
w 202 -201 -186 0
w 203 202 187 1
w 203 202 -187 0
w 203 -202 187 1
w 203 -202 -187 0
w 204 203 188 0
w 204 203 -188 1
w 204 -203 188 0
w 204 -203 -188 0
w 205 204 189 1
w 205 204 -189 1
w 205 -204 189 1
w 205 -204 -189 0
w 206 205 190 1
w 206 205 -190 1
w 206 -205 190 1
w 206 -205 -190 0
w 207 206 191 0.979021
w 207 206 -191 0.99245
w 207 -206 191 0.383796
w 207 -206 -191 0.656815
w 208 207 192 0.810648
w 208 207 -192 0.778758
w 208 -207 192 0.491028
w 208 -207 -192 0.0608907
w 209 193 0
w 209 -193 1
w 210 209 194 0
w 210 209 -194 1
w 210 -209 194 1
w 210 -209 -194 0
w 211 210 195 0
w 211 210 -195 0
w 211 -210 195 0
w 211 -210 -195 1
w 212 211 196 1
w 212 211 -196 0
w 212 -211 196 0
w 212 -211 -196 0
w 213 212 197 0.702474
w 213 212 -197 0.705477
w 213 -212 197 0.210438
w 213 -212 -197 0.642948
w 214 213 198 1
w 214 213 -198 0
w 214 -213 198 0
w 214 -213 -198 1
w 215 214 199 0.120072
w 215 214 -199 0.66559
w 215 -214 199 0.898283
w 215 -214 -199 0.499206
w 216 215 200 1
w 216 215 -200 1
w 216 -215 200 1
w 216 -215 -200 0
w 217 216 201 0.967177
w 217 216 -201 0.119519
w 217 -216 201 0.713513
w 217 -216 -201 0.202373
w 218 217 202 0
w 218 217 -202 1
w 218 -217 202 0
w 218 -217 -202 0
w 219 218 203 0
w 219 218 -203 1
w 219 -218 203 0
w 219 -218 -203 0
w 220 219 204 1
w 220 219 -204 0
w 220 -219 204 1
w 220 -219 -204 1
w 221 220 205 0.130761
w 221 220 -205 0.570424
w 221 -220 205 0.480347
w 221 -220 -205 0.0290448
w 222 221 206 1
w 222 221 -206 0
w 222 -221 206 0
w 222 -221 -206 0
w 223 222 207 0.0881242
w 223 222 -207 0.707711
w 223 -222 207 0.893048
w 223 -222 -207 0.801637
w 224 223 208 0.458665
w 224 223 -208 0.554794
w 224 -223 208 0.237865
w 224 -223 -208 0.773112
w 225 209 1
w 225 -209 0
w 226 225 210 0.0996713
w 226 225 -210 0.381466
w 226 -225 210 0.437288
w 226 -225 -210 0.366295
w 227 226 211 0
w 227 226 -211 1
w 227 -226 211 0
w 227 -226 -211 0
w 228 227 212 0.511279
w 228 227 -212 0.372586
w 228 -227 212 0.81947
w 228 -227 -212 0.580908
w 229 228 213 0
w 229 228 -213 0
w 229 -228 213 0
w 229 -228 -213 1
w 230 229 214 0.739589
w 230 229 -214 0.556795
w 230 -229 214 0.682311
w 230 -229 -214 0.649673
w 231 230 215 0
w 231 230 -215 0
w 231 -230 215 0
w 231 -230 -215 1
w 232 231 216 0.788553
w 232 231 -216 0.812772
w 232 -231 216 0.225931
w 232 -231 -216 0.225841
w 233 232 217 1
w 233 232 -217 0
w 233 -232 217 1
w 233 -232 -217 1
w 234 233 218 0
w 234 233 -218 0
w 234 -233 218 0
w 234 -233 -218 1
w 235 234 219 0.338844
w 235 234 -219 0.542027
w 235 -234 219 0.891369
w 235 -234 -219 0.00259105
w 236 235 220 0
w 236 235 -220 1
w 236 -235 220 1
w 236 -235 -220 1
w 237 236 221 0
w 237 236 -221 1
w 237 -236 221 1
w 237 -236 -221 0
w 238 237 222 1
w 238 237 -222 0
w 238 -237 222 0
w 238 -237 -222 1
w 239 238 223 0.681134
w 239 238 -223 0.885787
w 239 -238 223 0.612291
w 239 -238 -223 0.876697
w 240 239 224 0
w 240 239 -224 0
w 240 -239 224 1
w 240 -239 -224 0
w 241 225 1
w 241 -225 0
w 242 241 226 0
w 242 241 -226 1
w 242 -241 226 1
w 242 -241 -226 1
w 243 242 227 0
w 243 242 -227 1
w 243 -242 227 1
w 243 -242 -227 0
w 244 243 228 0.997411
w 244 243 -228 0.288097
w 244 -243 228 0.954622
w 244 -243 -228 0.865399
w 245 244 229 0
w 245 244 -229 1
w 245 -244 229 1
w 245 -244 -229 0
w 246 245 230 0.093956
w 246 245 -230 0.890264
w 246 -245 230 0.313186
w 246 -245 -230 0.874816
w 247 246 231 0
w 247 246 -231 0
w 247 -246 231 1
w 247 -246 -231 0
w 248 247 232 0.884177
w 248 247 -232 0.972583
w 248 -247 232 0.661815
w 248 -247 -232 0.748569
w 249 248 233 1
w 249 248 -233 0
w 249 -248 233 1
w 249 -248 -233 1
w 250 249 234 0.512264
w 250 249 -234 0.33267
w 250 -249 234 0.945081
w 250 -249 -234 0.377664
w 251 250 235 0.277514
w 251 250 -235 0.290119
w 251 -250 235 0.340998
w 251 -250 -235 0.291081
w 252 251 236 0
w 252 251 -236 1
w 252 -251 236 1
w 252 -251 -236 0
w 253 252 237 0
w 253 252 -237 1
w 253 -252 237 1
w 253 -252 -237 0
w 254 253 238 0
w 254 253 -238 1
w 254 -253 238 0
w 254 -253 -238 1
w 255 254 239 0.737685
w 255 254 -239 0.421978
w 255 -254 239 0.078025
w 255 -254 -239 0.252539
w 256 255 240 1
w 256 255 -240 0
w 256 -255 240 1
w 256 -255 -240 1